Maximize
  0.0192776884601411 Z_113_0_0 + 0.6563095280207535 Z_113_0_1
   + 0.00890077029564747 Z_113_0_2 + 0.00429782769020123 Z_113_0_3
   + 0.2112141855332568 Z_113_0_4 + 8.19676e-05 Z_724_11_0
   + 0.00151125781290151 Z_724_11_1 + 0.0336951630484075 Z_724_11_2
   + 0.00565949297042524 Z_724_11_3 + 0.8590521185795017 Z_724_11_4
   + 0.0165981959277299 Z_724_2_0 + 0.0782006644910698 Z_724_2_1
   + 0.0696099298959293 Z_724_2_2 + 0.0154995311801173 Z_724_2_3
   + 0.7200916785051539 Z_724_2_4 + 0.00670324954997496 Z_724_7_0
   + 0.0134080577418158 Z_724_7_1 + 0.00226908 Z_724_7_2
   + 0.0926499126390189 Z_724_7_3 + 0.7849697000224082 Z_724_7_4
   + 0.0224938094921637 Z_724_0_0 + 0.7502404826031477 Z_724_0_1
   + 0.0208533240836341 Z_724_0_2 + 0.0169169567302595 Z_724_0_3
   + 0.089495427090795 Z_724_0_4 + 0.00670324954997496 Z_724_9_0
   + 0.0134080577418158 Z_724_9_1 + 0.00226908 Z_724_9_2
   + 0.0926499126390189 Z_724_9_3 + 0.7849697000224082 Z_724_9_4
   + 2.3580660006246884e-04 Z_724_4_0 + 0.00448707292536558 Z_724_4_1
   + 0.045860859691802 Z_724_4_2 + 8.2676980705415494e-04 Z_724_4_3
   + 0.8485894909757158 Z_724_4_4 + 0.00669324422575927 Z_724_3_0
   + 0.0144523899484531 Z_724_3_1 + 0.00506980716778644 Z_724_3_2
   + 0.0222077783448129 Z_724_3_3 + 0.8515767803131883 Z_724_3_4
   + 0.0747102256317157 Z_724_8_0 + 0.0880028451864969 Z_724_8_1
   + 0.00660596921907405 Z_724_8_2 + 0.0467175016211871 Z_724_8_3
   + 0.6839634583415263 Z_724_8_4 + 0.000371257 Z_724_1_0
   + 5.4960941261096899e-04 Z_724_1_1 + 0.0248472140285521 Z_724_1_2
   + 0.0028491522119295 Z_724_1_3 + 0.8713827673217854 Z_724_1_4
   + 2.3580660006246884e-04 Z_724_5_0 + 0.00448707292536558 Z_724_5_1
   + 0.045860859691802 Z_724_5_2 + 8.2676980705415494e-04 Z_724_5_3
   + 0.8485894909757158 Z_724_5_4 + 0.1665427366012642 Z_724_12_0
   + 0.237750045068442 Z_724_12_1 + 0.0120771835877117 Z_724_12_2
   + 0.00593006969372671 Z_724_12_3 + 0.4776999650488554 Z_724_12_4
   + 0.0264515486757504 Z_724_13_0 + 0.060305507057458 Z_724_13_1
   + 0.0111365810986458 Z_724_13_2 + 0.0167780674790228 Z_724_13_3
   + 0.7853282956891231 Z_724_13_4 + 8.19676e-05 Z_724_10_0
   + 0.00151125781290151 Z_724_10_1 + 0.0336951630484075 Z_724_10_2
   + 0.00565949297042524 Z_724_10_3 + 0.8590521185795017 Z_724_10_4
   + 0.00957008615311539 Z_724_6_0 + 0.00804469725566853 Z_724_6_1
   + 0.050775800629255 Z_724_6_2 + 0.000228428 Z_724_6_3
   + 0.8313809880430025 Z_724_6_4 + 0.0138219012207506 Z_550_0_0
   + 0.3987353040573984 Z_550_0_1 + 0.00963435387789754 Z_550_0_2
   + 0.00361182223023945 Z_550_0_3 + 0.4741966186137139 Z_550_0_4
   + 0.00239557194925347 Z_213_3_0 + 0.00287681489582702 Z_213_3_1
   + 0.0271448560006064 Z_213_3_2 + 0.0068474636009994 Z_213_3_3
   + 0.8607352935533137 Z_213_3_4 + 0.00872764634070806 Z_213_2_0
   + 0.0108609933674873 Z_213_2_1 + 0.0453585366129356 Z_213_2_2
   + 6.0367462827217333e-04 Z_213_2_3 + 0.834449149050597 Z_213_2_4
   + 0.305591492870801 Z_213_4_0 + 0.1035802360032727 Z_213_4_1
   + 0.0130630810466456 Z_213_4_2 + 0.00471177742758947 Z_213_4_3
   + 0.4730534126516912 Z_213_4_4 + 6.02106e-05 Z_213_1_0
   + 0.00030585 Z_213_1_1 + 0.0222443940275696 Z_213_1_2
   + 1.8114842103406846e-04 Z_213_1_3 + 0.8772083969506993 Z_213_1_4
   + 0.00222085871780089 Z_213_5_0 + 0.2689593406348055 Z_213_5_1
   + 0.00584906221363974 Z_213_5_2 + 0.0194940681098921 Z_213_5_3
   + 0.6034766703238619 Z_213_5_4 + 0.03262879932711 Z_213_0_0
   + 0.8230814442432325 Z_213_0_1 + 0.00374829484363624 Z_213_0_2
   + 0.0101085758055275 Z_213_0_3 + 0.0304328857804938 Z_213_0_4
   + 0.6508515964015905 Z_314_0_0 + 0.0913207728177135 Z_314_0_1
   + 0.0171348443991196 Z_314_0_2 + 0.1185756749379034 Z_314_0_3
   + 0.022117111443673 Z_314_0_4 + 6.6375567803017912e-04 Z_314_1_0
   + 0.00102542244801341 Z_314_1_1 + 0.6185630027429682 Z_314_1_2
   + 7.4576169734965909e-04 Z_314_1_3 + 0.2790020574336385 Z_314_1_4
   + 5.8998024860197921e-04 Z_344_1_0 + 0.00151860984303017 Z_344_1_1
   + 0.7512568548395882 Z_344_1_2 + 8.2164745564036171e-04 Z_344_1_3
   + 0.1458129076131395 Z_344_1_4 + 0.4346387609826781 Z_344_0_0
   + 0.1436384367325895 Z_344_0_1 + 0.1232602339459371 Z_344_0_2
   + 0.1508042077587705 Z_344_0_3 + 0.0476583605800247 Z_344_0_4
   + 3.8642741242666661e-04 Z_63_0_0 + 0.00168330698018066 Z_63_0_1
   + 0.7104362478079652 Z_63_0_2 + 0.000777869 Z_63_0_3
   + 0.1867161487859568 Z_63_0_4 + 0.3516449576707309 Z_143_0_0
   + 0.2393665942929498 Z_143_0_1 + 0.00640970809878339 Z_143_0_2
   + 0.2018890882681446 Z_143_0_3 + 0.1006896516693913 Z_143_0_4
   + 0.000253849 Z_143_1_0 + 0.00366404062425074 Z_143_1_1
   + 0.7990665435467148 Z_143_1_2 + 0.000648063 Z_143_1_3
   + 0.0963675036728337 Z_143_1_4 + 2.189121734718962e-04 Z_568_0_0
   + 0.00153348465055573 Z_568_0_1 + 0.795404402217602 Z_568_0_2
   + 0.00255603064024938 Z_568_0_3 + 0.1002871703181211 Z_568_0_4
   + 0.542121142762092 Z_580_0_0 + 0.0991140708074296 Z_580_0_1
   + 0.00401746611994388 Z_580_0_2 + 0.0988922517743236 Z_580_0_3
   + 0.1558550685362109 Z_580_0_4 + 0.0110357061309835 Z_49_0_0
   + 0.7165898412374397 Z_49_0_1 + 0.00117271074119306 Z_49_0_2
   + 0.0115496250433413 Z_49_0_3 + 0.1596521168470424 Z_49_0_4
   + 3.1613717900392889e-04 Z_328_6_0 + 0.00376876047910265 Z_328_6_1
   + 0.1752300809157804 Z_328_6_2 + 0.00232539625429504 Z_328_6_3
   + 0.7183596251718181 Z_328_6_4 + 1.4304853203950111e-04 Z_328_4_0
   + 0.00784124890960095 Z_328_4_1 + 0.044582667961218 Z_328_4_2
   + 2.2611656628214767e-04 Z_328_4_3 + 0.8472069180308595 Z_328_4_4
   + 0.00258096678182085 Z_328_8_0 + 0.1790000505448119 Z_328_8_1
   + 0.0688933940844336 Z_328_8_2 + 0.0101853979012232 Z_328_8_3
   + 0.6393401906877105 Z_328_8_4 + 0.1015311699056098 Z_328_9_0
   + 0.4941983152932449 Z_328_9_1 + 0.0366739053211645 Z_328_9_2
   + 0.00750226172451598 Z_328_9_3 + 0.2600943477554648 Z_328_9_4
   + 0.00258096678182085 Z_328_7_0 + 0.1790000505448119 Z_328_7_1
   + 0.0688933940844336 Z_328_7_2 + 0.0101853979012232 Z_328_7_3
   + 0.6393401906877105 Z_328_7_4 + 4.7995342035710771e-04 Z_328_1_0
   + 0.00234811310665228 Z_328_1_1 + 0.2590386287193034 Z_328_1_2
   + 0.00447726084765684 Z_328_1_3 + 0.6336560439060305 Z_328_1_4
   + 0.00951045691909818 Z_328_5_0 + 0.5067974660682475 Z_328_5_1
   + 0.001351314943397 Z_328_5_2 + 0.0471269237567873 Z_328_5_3
   + 0.33521383831247 Z_328_5_4 + 4.7995342035710771e-04 Z_328_2_0
   + 0.00234811310665228 Z_328_2_1 + 0.2590386287193034 Z_328_2_2
   + 0.00447726084765684 Z_328_2_3 + 0.6336560439060305 Z_328_2_4
   + 0.0333106176442631 Z_328_3_0 + 0.3973644239128118 Z_328_3_1
   + 0.00582125818080934 Z_328_3_2 + 0.0308925085177676 Z_328_3_3
   + 0.4326111917443481 Z_328_3_4 + 0.00889281309719842 Z_525_0_0
   + 0.7914430628913762 Z_525_0_1 + 0.00772764508447112 Z_525_0_2
   + 0.0266927153940841 Z_525_0_3 + 0.0652437635328703 Z_525_0_4
   + 2.4946774530766375e-04 Z_325_0_0 + 0.00138425075203424 Z_325_0_1
   + 0.6938329244290248 Z_325_0_2 + 0.00108021752460144 Z_325_0_3
   + 0.2034531395490317 Z_325_0_4 + 0.5407874691322946 Z_16_0_0
   + 0.0197145056443746 Z_16_0_1 + 0.0192738563142602 Z_16_0_2
   + 0.0902673897237607 Z_16_0_3 + 0.22995677918531 Z_16_0_4
   + 0.00197078628128958 Z_16_1_0 + 0.00180648464829395 Z_16_1_1
   + 0.6556742582052192 Z_16_1_2 + 0.00102831057420654 Z_16_1_3
   + 0.2395201602909908 Z_16_1_4 + 0.0126077598828643 Z_400_0_0
   + 0.7819456228671933 Z_400_0_1 + 0.00102149902068745 Z_400_0_2
   + 0.00895249917485466 Z_400_0_3 + 0.0954726190544003 Z_400_0_4
   + 0.0163811616858441 Z_662_0_0 + 0.7493387074516045 Z_662_0_1
   + 0.0134974434800833 Z_662_0_2 + 0.0239336616841961 Z_662_0_3
   + 0.0968490256982719 Z_662_0_4
Subject To
 constraint1_1130: Z_113_0_0 + Z_113_0_1 + Z_113_0_2 + Z_113_0_3
   + Z_113_0_4 <= 1
 constraint1_72411: Z_724_11_0 + Z_724_11_1 + Z_724_11_2 + Z_724_11_3
   + Z_724_11_4 <= 1
 constraint1_7242: Z_724_2_0 + Z_724_2_1 + Z_724_2_2 + Z_724_2_3
   + Z_724_2_4 <= 1
 constraint1_7247: Z_724_7_0 + Z_724_7_1 + Z_724_7_2 + Z_724_7_3
   + Z_724_7_4 <= 1
 constraint1_7240: Z_724_0_0 + Z_724_0_1 + Z_724_0_2 + Z_724_0_3
   + Z_724_0_4 <= 1
 constraint1_7249: Z_724_9_0 + Z_724_9_1 + Z_724_9_2 + Z_724_9_3
   + Z_724_9_4 <= 1
 constraint1_7244: Z_724_4_0 + Z_724_4_1 + Z_724_4_2 + Z_724_4_3
   + Z_724_4_4 <= 1
 constraint1_7243: Z_724_3_0 + Z_724_3_1 + Z_724_3_2 + Z_724_3_3
   + Z_724_3_4 <= 1
 constraint1_7248: Z_724_8_0 + Z_724_8_1 + Z_724_8_2 + Z_724_8_3
   + Z_724_8_4 <= 1
 constraint1_7241: Z_724_1_0 + Z_724_1_1 + Z_724_1_2 + Z_724_1_3
   + Z_724_1_4 <= 1
 constraint1_7245: Z_724_5_0 + Z_724_5_1 + Z_724_5_2 + Z_724_5_3
   + Z_724_5_4 <= 1
 constraint1_72412: Z_724_12_0 + Z_724_12_1 + Z_724_12_2 + Z_724_12_3
   + Z_724_12_4 <= 1
 constraint1_72413: Z_724_13_0 + Z_724_13_1 + Z_724_13_2 + Z_724_13_3
   + Z_724_13_4 <= 1
 constraint1_72410: Z_724_10_0 + Z_724_10_1 + Z_724_10_2 + Z_724_10_3
   + Z_724_10_4 <= 1
 constraint1_7246: Z_724_6_0 + Z_724_6_1 + Z_724_6_2 + Z_724_6_3
   + Z_724_6_4 <= 1
 constraint1_5500: Z_550_0_0 + Z_550_0_1 + Z_550_0_2 + Z_550_0_3
   + Z_550_0_4 <= 1
 constraint1_2133: Z_213_3_0 + Z_213_3_1 + Z_213_3_2 + Z_213_3_3
   + Z_213_3_4 <= 1
 constraint1_2132: Z_213_2_0 + Z_213_2_1 + Z_213_2_2 + Z_213_2_3
   + Z_213_2_4 <= 1
 constraint1_2134: Z_213_4_0 + Z_213_4_1 + Z_213_4_2 + Z_213_4_3
   + Z_213_4_4 <= 1
 constraint1_2131: Z_213_1_0 + Z_213_1_1 + Z_213_1_2 + Z_213_1_3
   + Z_213_1_4 <= 1
 constraint1_2135: Z_213_5_0 + Z_213_5_1 + Z_213_5_2 + Z_213_5_3
   + Z_213_5_4 <= 1
 constraint1_2130: Z_213_0_0 + Z_213_0_1 + Z_213_0_2 + Z_213_0_3
   + Z_213_0_4 <= 1
 constraint1_3140: Z_314_0_0 + Z_314_0_1 + Z_314_0_2 + Z_314_0_3
   + Z_314_0_4 <= 1
 constraint1_3141: Z_314_1_0 + Z_314_1_1 + Z_314_1_2 + Z_314_1_3
   + Z_314_1_4 <= 1
 constraint1_3441: Z_344_1_0 + Z_344_1_1 + Z_344_1_2 + Z_344_1_3
   + Z_344_1_4 <= 1
 constraint1_3440: Z_344_0_0 + Z_344_0_1 + Z_344_0_2 + Z_344_0_3
   + Z_344_0_4 <= 1
 constraint1_630: Z_63_0_0 + Z_63_0_1 + Z_63_0_2 + Z_63_0_3 + Z_63_0_4
   <= 1
 constraint1_1430: Z_143_0_0 + Z_143_0_1 + Z_143_0_2 + Z_143_0_3
   + Z_143_0_4 <= 1
 constraint1_1431: Z_143_1_0 + Z_143_1_1 + Z_143_1_2 + Z_143_1_3
   + Z_143_1_4 <= 1
 constraint1_5680: Z_568_0_0 + Z_568_0_1 + Z_568_0_2 + Z_568_0_3
   + Z_568_0_4 <= 1
 constraint1_5800: Z_580_0_0 + Z_580_0_1 + Z_580_0_2 + Z_580_0_3
   + Z_580_0_4 <= 1
 constraint1_490: Z_49_0_0 + Z_49_0_1 + Z_49_0_2 + Z_49_0_3 + Z_49_0_4
   <= 1
 constraint1_3286: Z_328_6_0 + Z_328_6_1 + Z_328_6_2 + Z_328_6_3
   + Z_328_6_4 <= 1
 constraint1_3284: Z_328_4_0 + Z_328_4_1 + Z_328_4_2 + Z_328_4_3
   + Z_328_4_4 <= 1
 constraint1_3288: Z_328_8_0 + Z_328_8_1 + Z_328_8_2 + Z_328_8_3
   + Z_328_8_4 <= 1
 constraint1_3289: Z_328_9_0 + Z_328_9_1 + Z_328_9_2 + Z_328_9_3
   + Z_328_9_4 <= 1
 constraint1_3287: Z_328_7_0 + Z_328_7_1 + Z_328_7_2 + Z_328_7_3
   + Z_328_7_4 <= 1
 constraint1_3281: Z_328_1_0 + Z_328_1_1 + Z_328_1_2 + Z_328_1_3
   + Z_328_1_4 <= 1
 constraint1_3285: Z_328_5_0 + Z_328_5_1 + Z_328_5_2 + Z_328_5_3
   + Z_328_5_4 <= 1
 constraint1_3282: Z_328_2_0 + Z_328_2_1 + Z_328_2_2 + Z_328_2_3
   + Z_328_2_4 <= 1
 constraint1_3283: Z_328_3_0 + Z_328_3_1 + Z_328_3_2 + Z_328_3_3
   + Z_328_3_4 <= 1
 constraint1_5250: Z_525_0_0 + Z_525_0_1 + Z_525_0_2 + Z_525_0_3
   + Z_525_0_4 <= 1
 constraint1_3250: Z_325_0_0 + Z_325_0_1 + Z_325_0_2 + Z_325_0_3
   + Z_325_0_4 <= 1
 constraint1_160: Z_16_0_0 + Z_16_0_1 + Z_16_0_2 + Z_16_0_3 + Z_16_0_4
   <= 1
 constraint1_161: Z_16_1_0 + Z_16_1_1 + Z_16_1_2 + Z_16_1_3 + Z_16_1_4
   <= 1
 constraint1_4000: Z_400_0_0 + Z_400_0_1 + Z_400_0_2 + Z_400_0_3
   + Z_400_0_4 <= 1
 constraint1_6620: Z_662_0_0 + Z_662_0_1 + Z_662_0_2 + Z_662_0_3
   + Z_662_0_4 <= 1
 constraint2_1130: Z_113_0_0 <= 1
 constraint2_1131: Z_113_0_1 <= 1
 constraint2_1132: Z_113_0_2 <= 1
 constraint2_1133: Z_113_0_3 <= 1
 constraint2_7240: Z_724_11_0 + Z_724_2_0 + Z_724_7_0 + Z_724_0_0
   + Z_724_9_0 + Z_724_4_0 + Z_724_3_0 + Z_724_8_0 + Z_724_1_0 + Z_724_5_0
   + Z_724_12_0 + Z_724_13_0 + Z_724_10_0 + Z_724_6_0 <= 1
 constraint2_7241: Z_724_11_1 + Z_724_2_1 + Z_724_7_1 + Z_724_0_1
   + Z_724_9_1 + Z_724_4_1 + Z_724_3_1 + Z_724_8_1 + Z_724_1_1 + Z_724_5_1
   + Z_724_12_1 + Z_724_13_1 + Z_724_10_1 + Z_724_6_1 <= 1
 constraint2_7242: Z_724_11_2 + Z_724_2_2 + Z_724_7_2 + Z_724_0_2
   + Z_724_9_2 + Z_724_4_2 + Z_724_3_2 + Z_724_8_2 + Z_724_1_2 + Z_724_5_2
   + Z_724_12_2 + Z_724_13_2 + Z_724_10_2 + Z_724_6_2 <= 1
 constraint2_7243: Z_724_11_3 + Z_724_2_3 + Z_724_7_3 + Z_724_0_3
   + Z_724_9_3 + Z_724_4_3 + Z_724_3_3 + Z_724_8_3 + Z_724_1_3 + Z_724_5_3
   + Z_724_12_3 + Z_724_13_3 + Z_724_10_3 + Z_724_6_3 <= 1
 constraint2_5500: Z_550_0_0 <= 1
 constraint2_5501: Z_550_0_1 <= 1
 constraint2_5502: Z_550_0_2 <= 1
 constraint2_5503: Z_550_0_3 <= 1
 constraint2_2130: Z_213_3_0 + Z_213_2_0 + Z_213_4_0 + Z_213_1_0
   + Z_213_5_0 + Z_213_0_0 <= 1
 constraint2_2131: Z_213_3_1 + Z_213_2_1 + Z_213_4_1 + Z_213_1_1
   + Z_213_5_1 + Z_213_0_1 <= 1
 constraint2_2132: Z_213_3_2 + Z_213_2_2 + Z_213_4_2 + Z_213_1_2
   + Z_213_5_2 + Z_213_0_2 <= 1
 constraint2_2133: Z_213_3_3 + Z_213_2_3 + Z_213_4_3 + Z_213_1_3
   + Z_213_5_3 + Z_213_0_3 <= 1
 constraint2_3140: Z_314_0_0 + Z_314_1_0 <= 1
 constraint2_3141: Z_314_0_1 + Z_314_1_1 <= 1
 constraint2_3142: Z_314_0_2 + Z_314_1_2 <= 1
 constraint2_3143: Z_314_0_3 + Z_314_1_3 <= 1
 constraint2_3440: Z_344_1_0 + Z_344_0_0 <= 1
 constraint2_3441: Z_344_1_1 + Z_344_0_1 <= 1
 constraint2_3442: Z_344_1_2 + Z_344_0_2 <= 1
 constraint2_3443: Z_344_1_3 + Z_344_0_3 <= 1
 constraint2_630: Z_63_0_0 <= 1
 constraint2_631: Z_63_0_1 <= 1
 constraint2_632: Z_63_0_2 <= 1
 constraint2_633: Z_63_0_3 <= 1
 constraint2_1430: Z_143_0_0 + Z_143_1_0 <= 1
 constraint2_1431: Z_143_0_1 + Z_143_1_1 <= 1
 constraint2_1432: Z_143_0_2 + Z_143_1_2 <= 1
 constraint2_1433: Z_143_0_3 + Z_143_1_3 <= 1
 constraint2_5680: Z_568_0_0 <= 1
 constraint2_5681: Z_568_0_1 <= 1
 constraint2_5682: Z_568_0_2 <= 1
 constraint2_5683: Z_568_0_3 <= 1
 constraint2_4090: <= 1
 constraint2_4091: <= 1
 constraint2_4092: <= 1
 constraint2_4093: <= 1
 constraint2_3120: <= 1
 constraint2_3121: <= 1
 constraint2_3122: <= 1
 constraint2_3123: <= 1
 constraint2_5800: Z_580_0_0 <= 1
 constraint2_5801: Z_580_0_1 <= 1
 constraint2_5802: Z_580_0_2 <= 1
 constraint2_5803: Z_580_0_3 <= 1
 constraint2_4070: <= 1
 constraint2_4071: <= 1
 constraint2_4072: <= 1
 constraint2_4073: <= 1
 constraint2_490: Z_49_0_0 <= 1
 constraint2_491: Z_49_0_1 <= 1
 constraint2_492: Z_49_0_2 <= 1
 constraint2_493: Z_49_0_3 <= 1
 constraint2_3280: Z_328_6_0 + Z_328_4_0 + Z_328_8_0 + Z_328_9_0
   + Z_328_7_0 + Z_328_1_0 + Z_328_5_0 + Z_328_2_0 + Z_328_3_0 <= 1
 constraint2_3281: Z_328_6_1 + Z_328_4_1 + Z_328_8_1 + Z_328_9_1
   + Z_328_7_1 + Z_328_1_1 + Z_328_5_1 + Z_328_2_1 + Z_328_3_1 <= 1
 constraint2_3282: Z_328_6_2 + Z_328_4_2 + Z_328_8_2 + Z_328_9_2
   + Z_328_7_2 + Z_328_1_2 + Z_328_5_2 + Z_328_2_2 + Z_328_3_2 <= 1
 constraint2_3283: Z_328_6_3 + Z_328_4_3 + Z_328_8_3 + Z_328_9_3
   + Z_328_7_3 + Z_328_1_3 + Z_328_5_3 + Z_328_2_3 + Z_328_3_3 <= 1
 constraint2_5760: <= 1
 constraint2_5761: <= 1
 constraint2_5762: <= 1
 constraint2_5763: <= 1
 constraint2_5250: Z_525_0_0 <= 1
 constraint2_5251: Z_525_0_1 <= 1
 constraint2_5252: Z_525_0_2 <= 1
 constraint2_5253: Z_525_0_3 <= 1
 constraint2_3250: Z_325_0_0 <= 1
 constraint2_3251: Z_325_0_1 <= 1
 constraint2_3252: Z_325_0_2 <= 1
 constraint2_3253: Z_325_0_3 <= 1
 constraint2_160: Z_16_0_0 + Z_16_1_0 <= 1
 constraint2_161: Z_16_0_1 + Z_16_1_1 <= 1
 constraint2_162: Z_16_0_2 + Z_16_1_2 <= 1
 constraint2_163: Z_16_0_3 + Z_16_1_3 <= 1
 constraint2_4000: Z_400_0_0 <= 1
 constraint2_4001: Z_400_0_1 <= 1
 constraint2_4002: Z_400_0_2 <= 1
 constraint2_4003: Z_400_0_3 <= 1
 constraint2_7510: <= 1
 constraint2_7511: <= 1
 constraint2_7512: <= 1
 constraint2_7513: <= 1
 constraint2_6620: Z_662_0_0 <= 1
 constraint2_6621: Z_662_0_1 <= 1
 constraint2_6622: Z_662_0_2 <= 1
 constraint2_6623: Z_662_0_3 <= 1
Bounds
Binaries
 Z_113_0_0 Z_113_0_1 Z_113_0_2 Z_113_0_3 Z_113_0_4 Z_724_11_0 Z_724_11_1
 Z_724_11_2 Z_724_11_3 Z_724_11_4 Z_724_2_0 Z_724_2_1 Z_724_2_2 Z_724_2_3
 Z_724_2_4 Z_724_7_0 Z_724_7_1 Z_724_7_2 Z_724_7_3 Z_724_7_4 Z_724_0_0
 Z_724_0_1 Z_724_0_2 Z_724_0_3 Z_724_0_4 Z_724_9_0 Z_724_9_1 Z_724_9_2
 Z_724_9_3 Z_724_9_4 Z_724_4_0 Z_724_4_1 Z_724_4_2 Z_724_4_3 Z_724_4_4
 Z_724_3_0 Z_724_3_1 Z_724_3_2 Z_724_3_3 Z_724_3_4 Z_724_8_0 Z_724_8_1
 Z_724_8_2 Z_724_8_3 Z_724_8_4 Z_724_1_0 Z_724_1_1 Z_724_1_2 Z_724_1_3
 Z_724_1_4 Z_724_5_0 Z_724_5_1 Z_724_5_2 Z_724_5_3 Z_724_5_4 Z_724_12_0
 Z_724_12_1 Z_724_12_2 Z_724_12_3 Z_724_12_4 Z_724_13_0 Z_724_13_1
 Z_724_13_2 Z_724_13_3 Z_724_13_4 Z_724_10_0 Z_724_10_1 Z_724_10_2
 Z_724_10_3 Z_724_10_4 Z_724_6_0 Z_724_6_1 Z_724_6_2 Z_724_6_3 Z_724_6_4
 Z_550_0_0 Z_550_0_1 Z_550_0_2 Z_550_0_3 Z_550_0_4 Z_213_3_0 Z_213_3_1
 Z_213_3_2 Z_213_3_3 Z_213_3_4 Z_213_2_0 Z_213_2_1 Z_213_2_2 Z_213_2_3
 Z_213_2_4 Z_213_4_0 Z_213_4_1 Z_213_4_2 Z_213_4_3 Z_213_4_4 Z_213_1_0
 Z_213_1_1 Z_213_1_2 Z_213_1_3 Z_213_1_4 Z_213_5_0 Z_213_5_1 Z_213_5_2
 Z_213_5_3 Z_213_5_4 Z_213_0_0 Z_213_0_1 Z_213_0_2 Z_213_0_3 Z_213_0_4
 Z_314_0_0 Z_314_0_1 Z_314_0_2 Z_314_0_3 Z_314_0_4 Z_314_1_0 Z_314_1_1
 Z_314_1_2 Z_314_1_3 Z_314_1_4 Z_344_1_0 Z_344_1_1 Z_344_1_2 Z_344_1_3
 Z_344_1_4 Z_344_0_0 Z_344_0_1 Z_344_0_2 Z_344_0_3 Z_344_0_4 Z_63_0_0
 Z_63_0_1 Z_63_0_2 Z_63_0_3 Z_63_0_4 Z_143_0_0 Z_143_0_1 Z_143_0_2
 Z_143_0_3 Z_143_0_4 Z_143_1_0 Z_143_1_1 Z_143_1_2 Z_143_1_3 Z_143_1_4
 Z_568_0_0 Z_568_0_1 Z_568_0_2 Z_568_0_3 Z_568_0_4 Z_580_0_0 Z_580_0_1
 Z_580_0_2 Z_580_0_3 Z_580_0_4 Z_49_0_0 Z_49_0_1 Z_49_0_2 Z_49_0_3 Z_49_0_4
 Z_328_6_0 Z_328_6_1 Z_328_6_2 Z_328_6_3 Z_328_6_4 Z_328_4_0 Z_328_4_1
 Z_328_4_2 Z_328_4_3 Z_328_4_4 Z_328_8_0 Z_328_8_1 Z_328_8_2 Z_328_8_3
 Z_328_8_4 Z_328_9_0 Z_328_9_1 Z_328_9_2 Z_328_9_3 Z_328_9_4 Z_328_7_0
 Z_328_7_1 Z_328_7_2 Z_328_7_3 Z_328_7_4 Z_328_1_0 Z_328_1_1 Z_328_1_2
 Z_328_1_3 Z_328_1_4 Z_328_5_0 Z_328_5_1 Z_328_5_2 Z_328_5_3 Z_328_5_4
 Z_328_2_0 Z_328_2_1 Z_328_2_2 Z_328_2_3 Z_328_2_4 Z_328_3_0 Z_328_3_1
 Z_328_3_2 Z_328_3_3 Z_328_3_4 Z_525_0_0 Z_525_0_1 Z_525_0_2 Z_525_0_3
 Z_525_0_4 Z_325_0_0 Z_325_0_1 Z_325_0_2 Z_325_0_3 Z_325_0_4 Z_16_0_0
 Z_16_0_1 Z_16_0_2 Z_16_0_3 Z_16_0_4 Z_16_1_0 Z_16_1_1 Z_16_1_2 Z_16_1_3
 Z_16_1_4 Z_400_0_0 Z_400_0_1 Z_400_0_2 Z_400_0_3 Z_400_0_4 Z_662_0_0
 Z_662_0_1 Z_662_0_2 Z_662_0_3 Z_662_0_4
End
